# Solution for model GasLib-40
# Objective value = 5.2817435858059227e+01
loadshed[innode_1] 0
loadshed[innode_2] 0
loadshed[innode_3] 0
loadshed[innode_4] 0
loadshed[innode_5] 0
loadshed[innode_6] 0
loadshed[innode_7] 0
loadshed[innode_8] 0
loadshed[source_1] -1.2572764850683660e-01
loadshed[source_2] 2.2355575699663532e-01
loadshed[source_3] 2.3626856462933410e-01
loadshed[sink_1] 3.6640368085075836e-01
loadshed[sink_2] 0
loadshed[sink_3] 0
loadshed[sink_4] 0
loadshed[sink_5] 0
loadshed[sink_6] 0
loadshed[sink_7] 0
loadshed[sink_8] 0
loadshed[sink_9] 0
loadshed[sink_10] 0
loadshed[sink_11] 0
loadshed[sink_12] 1
loadshed[sink_13] 0
loadshed[sink_14] 0
loadshed[sink_15] 0
loadshed[sink_16] 0
loadshed[sink_17] 0
loadshed[sink_18] 0
loadshed[sink_19] 0
loadshed[sink_20] 0
loadshed[sink_21] 1
loadshed[sink_22] 0
loadshed[sink_23] 0
loadshed[sink_24] 8.6319749263566514e-01
loadshed[sink_25] 0
loadshed[sink_26] 0
loadshed[sink_27] 0
loadshed[sink_28] 0
loadshed[sink_29] 0
flow[source_1,sink_3] 1.7796659665457037e+02
flow[innode_1,sink_16] 1.6354166666666970e+01
flow[innode_6,sink_13] -6.2593480987027377e+00
flow[sink_13,sink_14] -2.2613514765369406e+01
flow[sink_14,sink_10] -3.8967681432036073e+01
flow[sink_25,sink_26] 1.1246885487222772e+02
flow[sink_26,sink_9] 0
flow[sink_9,sink_18] -1.6354166666669244e+01
flow[sink_26,sink_4] 9.6114688205561052e+01
flow[sink_4,sink_20] -1.4494474094956214e+01
flow[sink_18,sink_6] -3.2708333333335915e+01
flow[sink_25,innode_8] -145.258263321234
flow[sink_6,sink_7] -7.5778606469422442e+01
flow[sink_6,sink_22] 2.6716106469419891e+01
flow[sink_7,sink_24] 2.2372910058542272e+00
flow[sink_22,sink_1] 1.0361939802753223e+01
flow[sink_24,sink_21] 0
flow[sink_21,sink_12] 0
flow[sink_7,sink_5] -9.4370064141943345e+01
flow[sink_5,sink_17] -1.1072423080861002e+02
flow[sink_17,sink_4] -94.2549956338506
flow[sink_17,sink_8] -3.2823401841426090e+01
flow[sink_3,sink_23] 16.3541666666697
flow[sink_8,sink_20] -4.9177568508092754e+01
flow[sink_25,sink_20] 8.0026209269715679e+01
flow[sink_25,sink_15] -5.7331619388673360e+01
flow[sink_15,sink_29] -9.0039952722024282e+01
flow[sink_29,sink_28] 1.6354166666667879e+01
flow[sink_29,sink_2] 0
flow[sink_2,sink_15] -1.6354166666684250e+01
flow[sink_29,innode_7] -1.2274828605535831e+02
flow[innode_4,sink_19] 4.6867379180977842e+01
flow[sink_19,innode_3] 4.2958356963639936e+01
flow[innode_4,innode_5] 7.3871135584391666e+01
flow[sink_27,innode_5] -7.3871135584391666e+01
flow[sink_27,sink_19] 5.7516968917724995e+01
flow[sink_10,sink_11] 3.2708333333333641e+01
flow[sink_10,innode_2] -4.5071824468396443e+01
flow[sink_10,innode_3] -4.2958356963639936e+01
flow[innode_6,sink_25] 6.2593480987027377e+00
flow[sink_11,innode_1] 1.6354166666666970e+01
flow[sink_19,innode_2] 4.5071824468396443e+01
flow[source_3,innode_4] 1.2073851476536950e+02
flow[source_2,innode_7] 1.2274828605535831e+02
flow[sink_3,innode_8] 145.258263321234
pressure[innode_1] 7.6580599667125725e+01
pressure[innode_2] 79.1145330506158
pressure[innode_3] 7.9019406633626033e+01
pressure[innode_4] 81.01325
pressure[innode_5] 8.0962437537708013e+01
pressure[innode_6] 7.4814208808355872e+01
pressure[innode_7] 81.01325
pressure[innode_8] 80.4183756530879
pressure[source_1] 81.01325
pressure[source_2] 81.01325
pressure[source_3] 81.01325
pressure[sink_1] 1.0132500000000002e+00
pressure[sink_2] 7.5038930277806244e+01
pressure[sink_3] 80.4183756530879
pressure[sink_4] 5.4672823194627505e+01
pressure[sink_5] 4.2822553200229009e+01
pressure[sink_6] 2.5345218606206639e+00
pressure[sink_7] 3.5747814985864252e+00
pressure[sink_8] 5.2309220282320794e+01
pressure[sink_9] 1.0693694813144261e+00
pressure[sink_10] 7.6732300974729270e+01
pressure[sink_11] 7.6580599667125725e+01
pressure[sink_12] 1.01325
pressure[sink_13] 7.4848715548389777e+01
pressure[sink_14] 7.4889184359307947e+01
pressure[sink_15] 7.5092323027572689e+01
pressure[sink_16] 7.5558949832308045e+01
pressure[sink_17] 51.0707080577427
pressure[sink_18] 1.6611119751141805e+00
pressure[sink_19] 79.1145330506158
pressure[sink_20] 5.5736205209859762e+01
pressure[sink_21] 1.01325
pressure[sink_22] 1.6872502130206679e+00
pressure[sink_23] 8.0253657641428120e+01
pressure[sink_24] 1.01325
pressure[sink_25] 7.4814208808355872e+01
pressure[sink_26] 6.6893093409000514e+01
pressure[sink_27] 8.0349443611539172e+01
pressure[sink_28] 7.7434931940260142e+01
pressure[sink_29] 7.7730214213877318e+01
interdiction[source_1,sink_3] 0
interdiction[innode_1,sink_16] 0
interdiction[innode_6,sink_13] 0
interdiction[sink_13,sink_14] 0
interdiction[sink_14,sink_10] 0
interdiction[sink_25,sink_26] 0
interdiction[sink_26,sink_9] 1
interdiction[sink_9,sink_18] 0
interdiction[sink_26,sink_4] 0
interdiction[sink_4,sink_20] 0
interdiction[sink_18,sink_6] 0
interdiction[sink_25,innode_8] 0
interdiction[sink_6,sink_7] 0
interdiction[sink_6,sink_22] 0
interdiction[sink_7,sink_24] 0
interdiction[sink_22,sink_1] 0
interdiction[sink_24,sink_21] 0
interdiction[sink_21,sink_12] 0
interdiction[sink_7,sink_5] 0
interdiction[sink_5,sink_17] 0
interdiction[sink_17,sink_4] 0
interdiction[sink_17,sink_8] 0
interdiction[sink_3,sink_23] 0
interdiction[sink_8,sink_20] 0
interdiction[sink_25,sink_20] 0
interdiction[sink_25,sink_15] 0
interdiction[sink_15,sink_29] 0
interdiction[sink_29,sink_28] 0
interdiction[sink_29,sink_2] 1
interdiction[sink_2,sink_15] 0
interdiction[sink_29,innode_7] 0
interdiction[innode_4,sink_19] 0
interdiction[sink_19,innode_3] 0
interdiction[innode_4,innode_5] 0
interdiction[sink_27,innode_5] 0
interdiction[sink_27,sink_19] 0
interdiction[sink_10,sink_11] 0
interdiction[sink_10,innode_2] 0
interdiction[sink_10,innode_3] 0
interdiction[innode_6,sink_25] 0
interdiction[sink_11,innode_1] 0
interdiction[sink_19,innode_2] 0
interdiction[source_3,innode_4] 0
interdiction[source_2,innode_7] 0
interdiction[sink_3,innode_8] 0
WCcheckFlow[source_1,sink_3] 39
WCcheckFlow[innode_1,sink_16] 1
WCcheckFlow[innode_6,sink_13] 13
WCcheckFlow[sink_13,sink_14] 12
WCcheckFlow[sink_14,sink_10] 11
WCcheckFlow[sink_25,sink_26] 15
WCcheckFlow[sink_26,sink_9] 0
WCcheckFlow[sink_9,sink_18] -1
WCcheckFlow[sink_26,sink_4] 14
WCcheckFlow[sink_4,sink_20] 1
WCcheckFlow[sink_18,sink_6] -2
WCcheckFlow[sink_25,innode_8] -36
WCcheckFlow[sink_6,sink_7] -5
WCcheckFlow[sink_6,sink_22] 2
WCcheckFlow[sink_7,sink_24] 3
WCcheckFlow[sink_22,sink_1] 1
WCcheckFlow[sink_24,sink_21] 2
WCcheckFlow[sink_21,sink_12] 1
WCcheckFlow[sink_7,sink_5] -9
WCcheckFlow[sink_5,sink_17] -10
WCcheckFlow[sink_17,sink_4] -12
WCcheckFlow[sink_17,sink_8] 1
WCcheckFlow[sink_3,sink_23] 1
WCcheckFlow[sink_8,sink_20] 0
WCcheckFlow[sink_25,sink_20] 0
WCcheckFlow[sink_25,sink_15] 6
WCcheckFlow[sink_15,sink_29] 4
WCcheckFlow[sink_29,sink_28] 1
WCcheckFlow[sink_29,sink_2] 0
WCcheckFlow[sink_2,sink_15] -1
WCcheckFlow[sink_29,innode_7] 2
WCcheckFlow[innode_4,sink_19] -4
WCcheckFlow[sink_19,innode_3] -5
WCcheckFlow[innode_4,innode_5] 2
WCcheckFlow[sink_27,innode_5] -1
WCcheckFlow[sink_27,sink_19] 0
WCcheckFlow[sink_10,sink_11] 3
WCcheckFlow[sink_10,innode_2] 1
WCcheckFlow[sink_10,innode_3] 6
WCcheckFlow[innode_6,sink_25] -14
WCcheckFlow[sink_11,innode_1] 2
WCcheckFlow[sink_19,innode_2] 0
WCcheckFlow[source_3,innode_4] -1
WCcheckFlow[source_2,innode_7] -1
WCcheckFlow[sink_3,innode_8] 37
